%nprocshared=8
%mem=15gb
#T m06l/Gen IRC=(calcfc,LQA,MaxPoints=1000) Integral=UltraFine Pseudo=Read SCRF=(solvent=methanol,SMD)

Title

1 1
=====WILL BE GEOMETRY BLOCK=====

LIGHT_ELEMENT_BASIS 0
6-31G(d,p)
****
HEAVY_ELEMENT_BASIS 0
SDD
****

HEAVY_ELEMENT_ECP 0 
SDD

