! DLPNO-CCSD(T) def2-TZVP def2-TZVP/C TIGHTSCF TightPNO PAL8
%maxcore 3000
* xyz 1 1
H                0.000000            0.000000            0.000000
F                0.000000            0.000000            1.000000
*
